(declare-const BAV1 Bool)
(declare-const BAV2 Bool)
(declare-const BAV3 Bool)
(declare-const BAV4 Bool)
(declare-const GEN4 Int)
(declare-const GEN3 Int)
(declare-const GEN2 Int)
(declare-const GEN1 Int)
(set-option :auto-config true)
(set-option :produce-models true)
(declare-const a Int)
(declare-const b Int)
(declare-const c Int)
(declare-const d Real)
(declare-const e Real)
(assert (> a (+ b GEN1)))
(assert (= a (+ (* GEN2 c) GEN3)))
(assert (<= (+ c b) GEN4))
(assert (>= d e))
(assert (= BAV1 (> a (+ b GEN1))))
(assert (= BAV2 (= a (+ (* GEN2 c) GEN3))))
(assert (= BAV3 (<= (+ c b) GEN4)))
(assert (= BAV4 (>= d e)))
(check-sat)
(get-model)